p edge 64 512
e 1 57
e 1 53
e 1 17
e 1 8
e 1 20
e 1 59
e 1 21
e 1 62
e 1 3
e 1 37
e 1 26
e 1 63
e 1 41
e 1 43
e 2 49
e 2 28
e 2 24
e 2 26
e 2 56
e 2 36
e 2 30
e 2 37
e 2 7
e 2 54
e 2 18
e 2 10
e 3 41
e 3 22
e 3 37
e 3 24
e 3 59
e 3 43
e 3 16
e 3 13
e 3 11
e 3 34
e 3 18
e 3 6
e 4 13
e 4 51
e 4 52
e 4 41
e 4 57
e 4 8
e 4 30
e 4 5
e 4 25
e 4 27
e 4 36
e 4 42
e 5 51
e 5 38
e 5 55
e 5 9
e 5 26
e 5 28
e 5 20
e 5 63
e 5 37
e 5 16
e 5 30
e 5 25
e 5 34
e 5 10
e 5 60
e 5 18
e 5 42
e 5 46
e 6 18
e 6 16
e 6 63
e 6 41
e 6 9
e 6 55
e 6 59
e 6 14
e 6 23
e 6 45
e 6 56
e 6 40
e 6 20
e 6 52
e 6 27
e 6 30
e 6 38
e 7 23
e 7 55
e 7 39
e 7 41
e 7 9
e 7 16
e 7 62
e 7 54
e 7 28
e 7 40
e 7 42
e 7 27
e 7 52
e 7 30
e 8 10
e 8 59
e 8 35
e 8 37
e 8 48
e 8 16
e 8 45
e 8 42
e 8 29
e 8 20
e 8 23
e 9 19
e 9 51
e 9 23
e 9 14
e 9 36
e 9 31
e 9 25
e 9 55
e 9 49
e 9 29
e 9 41
e 9 64
e 9 27
e 9 48
e 9 44
e 9 42
e 9 11
e 9 16
e 9 10
e 9 39
e 10 16
e 10 51
e 10 38
e 10 14
e 10 22
e 10 37
e 10 13
e 10 30
e 10 34
e 10 25
e 10 61
e 10 60
e 10 62
e 11 54
e 11 12
e 11 57
e 11 45
e 11 62
e 11 25
e 11 47
e 11 41
e 12 46
e 12 52
e 12 31
e 12 63
e 12 25
e 12 50
e 12 26
e 12 62
e 12 43
e 12 49
e 12 19
e 12 29
e 12 28
e 12 38
e 12 53
e 12 56
e 12 58
e 12 39
e 12 37
e 12 14
e 12 36
e 12 23
e 12 40
e 13 62
e 13 44
e 13 52
e 13 15
e 13 48
e 13 53
e 13 30
e 13 47
e 13 14
e 13 18
e 13 20
e 13 39
e 14 27
e 14 33
e 14 20
e 14 57
e 14 19
e 14 38
e 14 31
e 14 25
e 14 51
e 14 36
e 14 18
e 14 23
e 15 28
e 15 62
e 15 24
e 15 59
e 15 58
e 15 53
e 15 48
e 15 55
e 15 54
e 15 29
e 15 38
e 15 26
e 16 51
e 16 32
e 16 35
e 16 60
e 16 38
e 16 56
e 16 44
e 16 18
e 16 40
e 16 49
e 17 42
e 17 52
e 17 33
e 17 20
e 17 49
e 17 25
e 17 32
e 17 22
e 17 54
e 17 50
e 17 55
e 17 44
e 17 23
e 17 51
e 17 62
e 17 38
e 17 61
e 18 19
e 18 20
e 18 27
e 18 54
e 18 21
e 18 60
e 18 22
e 18 33
e 19 41
e 19 28
e 19 31
e 19 23
e 19 33
e 19 61
e 19 54
e 19 38
e 19 42
e 19 57
e 19 22
e 19 59
e 19 60
e 20 50
e 20 59
e 20 55
e 20 54
e 20 35
e 20 56
e 20 52
e 20 33
e 20 64
e 20 43
e 20 58
e 20 45
e 20 42
e 20 21
e 20 57
e 20 37
e 21 63
e 21 52
e 21 57
e 21 35
e 21 34
e 21 26
e 21 45
e 21 47
e 21 53
e 21 40
e 21 24
e 21 33
e 21 55
e 21 58
e 22 34
e 22 61
e 22 45
e 22 41
e 23 28
e 23 40
e 23 24
e 23 55
e 23 29
e 23 32
e 23 53
e 23 44
e 24 50
e 24 36
e 24 42
e 24 56
e 24 39
e 24 47
e 24 38
e 24 64
e 24 31
e 25 48
e 25 32
e 25 35
e 25 52
e 25 44
e 25 57
e 26 40
e 26 28
e 26 58
e 26 45
e 26 36
e 26 30
e 26 63
e 26 64
e 26 33
e 26 52
e 27 49
e 27 36
e 27 42
e 27 55
e 27 63
e 27 52
e 27 53
e 28 39
e 28 37
e 28 64
e 28 42
e 28 63
e 28 47
e 28 60
e 28 29
e 29 46
e 29 52
e 29 35
e 29 43
e 29 55
e 29 54
e 29 30
e 29 63
e 29 60
e 29 49
e 30 41
e 30 38
e 30 39
e 30 37
e 30 31
e 30 40
e 30 42
e 30 46
e 30 44
e 30 54
e 30 61
e 31 61
e 31 36
e 31 37
e 31 45
e 31 42
e 31 60
e 31 54
e 31 35
e 31 43
e 31 49
e 31 48
e 32 57
e 32 46
e 32 63
e 32 64
e 32 48
e 32 36
e 32 33
e 32 41
e 32 55
e 33 44
e 33 60
e 33 53
e 33 42
e 33 59
e 33 35
e 33 55
e 34 39
e 34 35
e 34 47
e 34 53
e 34 45
e 34 54
e 34 46
e 34 40
e 35 44
e 35 53
e 35 58
e 35 63
e 35 52
e 36 38
e 36 45
e 36 53
e 36 62
e 36 54
e 37 55
e 37 57
e 37 47
e 37 39
e 37 63
e 37 60
e 38 61
e 38 45
e 38 57
e 38 46
e 38 39
e 38 49
e 38 48
e 38 58
e 38 50
e 39 54
e 39 44
e 39 48
e 39 47
e 39 59
e 39 41
e 39 45
e 39 57
e 39 53
e 39 58
e 39 46
e 39 61
e 39 50
e 40 47
e 40 51
e 40 46
e 40 43
e 40 60
e 40 61
e 40 49
e 41 64
e 41 59
e 41 49
e 41 46
e 41 56
e 41 63
e 42 53
e 42 60
e 42 62
e 42 43
e 42 58
e 42 64
e 42 57
e 42 55
e 42 46
e 43 59
e 43 51
e 43 56
e 43 58
e 43 50
e 43 60
e 44 47
e 44 60
e 44 53
e 44 45
e 45 48
e 45 51
e 45 49
e 45 63
e 45 59
e 45 46
e 46 49
e 46 59
e 46 58
e 47 59
e 47 48
e 47 58
e 47 61
e 47 49
e 47 60
e 48 59
e 48 49
e 48 58
e 48 56
e 49 60
e 50 61
e 50 54
e 50 59
e 50 55
e 50 58
e 51 62
e 51 52
e 52 59
e 53 62
e 53 55
e 53 58
e 53 63
e 53 54
e 54 60
e 54 55
e 55 57
e 56 64
e 56 58
e 57 64
e 58 61
e 58 62
e 61 62
e 61 63
e 62 64
e 62 63
e 63 64
